Problem:    modifiedBorda
Rows:       4
Columns:    5 (4 integer, 4 binary)
Non-zeros:  14
Status:     INTEGER OPTIMAL
Objective:  fin_score = 0 (MINimum)

   No.   Row name        Activity     Lower bound   Upper bound
------ ------------    ------------- ------------- -------------
     1 fin_score                   0                             
     2 mod_score                   4             4               
     3 remove_vote[b]
                                  -1                          -0 
     4 remove_vote[c]
                                  -2                          -0 

   No. Column name       Activity     Lower bound   Upper bound
------ ------------    ------------- ------------- -------------
     1 keep_vote[v1]
                    *              1             0             1 
     2 keep_vote[v2]
                    *              1             0             1 
     3 keep_vote[v3]
                    *              1             0             1 
     4 keep_vote[v4]
                    *              1             0             1 
     5 score                       0                             

Integer feasibility conditions:

KKT.PE: max.abs.err = 0.00e+00 on row 0
        max.rel.err = 0.00e+00 on row 0
        High quality

KKT.PB: max.abs.err = 0.00e+00 on row 0
        max.rel.err = 0.00e+00 on row 0
        High quality

End of output
